MARKOV
15
2 2 2 2 2 2 2 2 2 2 2 2 2 2 2
105
2 1 0
2 2 0
2 2 1
2 3 0
2 3 1
2 3 2
2 4 0
2 4 1
2 4 2
2 4 3
2 5 0
2 5 1
2 5 2
2 5 3
2 5 4
2 6 0
2 6 1
2 6 2
2 6 3
2 6 4
2 6 5
2 7 0
2 7 1
2 7 2
2 7 3
2 7 4
2 7 5
2 7 6
2 8 0
2 8 1
2 8 2
2 8 3
2 8 4
2 8 5
2 8 6
2 8 7
2 9 0
2 9 1
2 9 2
2 9 3
2 9 4
2 9 5
2 9 6
2 9 7
2 9 8
2 10 0
2 10 1
2 10 2
2 10 3
2 10 4
2 10 5
2 10 6
2 10 7
2 10 8
2 10 9
2 11 0
2 11 1
2 11 2
2 11 3
2 11 4
2 11 5
2 11 6
2 11 7
2 11 8
2 11 9
2 11 10
2 12 0
2 12 1
2 12 2
2 12 3
2 12 4
2 12 5
2 12 6
2 12 7
2 12 8
2 12 9
2 12 10
2 12 11
2 13 0
2 13 1
2 13 2
2 13 3
2 13 4
2 13 5
2 13 6
2 13 7
2 13 8
2 13 9
2 13 10
2 13 11
2 13 12
2 14 0
2 14 1
2 14 2
2 14 3
2 14 4
2 14 5
2 14 6
2 14 7
2 14 8
2 14 9
2 14 10
2 14 11
2 14 12
2 14 13
4
1
0.998077594788
0.998077594788
1

4
1
0.9750119904
0.9750119904
1

4
1
0.918788046105
0.918788046105
1

4
1
0.930783194021
0.930783194021
1

4
1
0.950782527126
0.950782527126
1

4
1
0.910622601103
0.910622601103
1

4
1
0.931778088055
0.931778088055
1

4
1
0.997001544882
0.997001544882
1

4
1
0.966702258402
0.966702258402
1

4
1
0.996775211725
0.996775211725
1

4
1
0.925172696162
0.925172696162
1

4
1
0.994091142964
0.994091142964
1

4
1
0.93318104826
0.93318104826
1

4
1
0.922129637636
0.922129637636
1

4
1
0.985512623517
0.985512623517
1

4
1
0.991907035472
0.991907035472
1

4
1
0.937480127686
0.937480127686
1

4
1
0.943986228037
0.943986228037
1

4
1
0.932107630274
0.932107630274
1

4
1
0.978954835321
0.978954835321
1

4
1
0.967388801917
0.967388801917
1

4
1
0.968670064704
0.968670064704
1

4
1
0.966368570672
0.966368570672
1

4
1
0.994595305025
0.994595305025
1

4
1
0.926023540896
0.926023540896
1

4
1
0.942494894752
0.942494894752
1

4
1
0.967564562368
0.967564562368
1

4
1
0.985325021868
0.985325021868
1

4
1
0.989402250565
0.989402250565
1

4
1
0.920450800061
0.920450800061
1

4
1
0.980113433344
0.980113433344
1

4
1
0.922925651786
0.922925651786
1

4
1
0.985831307589
0.985831307589
1

4
1
0.962034869006
0.962034869006
1

4
1
0.957971210782
0.957971210782
1

4
1
0.962063957449
0.962063957449
1

4
1
0.92943942234
0.92943942234
1

4
1
0.919959257157
0.919959257157
1

4
1
0.908566766913
0.908566766913
1

4
1
0.941773532189
0.941773532189
1

4
1
0.906098102636
0.906098102636
1

4
1
0.997270701066
0.997270701066
1

4
1
0.981391227144
0.981391227144
1

4
1
0.971102296971
0.971102296971
1

4
1
0.98950847347
0.98950847347
1

4
1
0.924926289404
0.924926289404
1

4
1
0.989934540806
0.989934540806
1

4
1
0.991451315099
0.991451315099
1

4
1
0.967226681572
0.967226681572
1

4
1
0.960823217624
0.960823217624
1

4
1
0.957953311432
0.957953311432
1

4
1
0.952493176548
0.952493176548
1

4
1
0.934025641538
0.934025641538
1

4
1
0.983184432232
0.983184432232
1

4
1
0.960439242042
0.960439242042
1

4
1
0.983170936217
0.983170936217
1

4
1
0.972985003968
0.972985003968
1

4
1
0.999960188206
0.999960188206
1

4
1
0.923611017943
0.923611017943
1

4
1
0.984445908466
0.984445908466
1

4
1
0.925182948284
0.925182948284
1

4
1
0.933340088389
0.933340088389
1

4
1
0.942888229672
0.942888229672
1

4
1
0.943239229317
0.943239229317
1

4
1
0.981281211909
0.981281211909
1

4
1
0.984099772051
0.984099772051
1

4
1
0.987698207231
0.987698207231
1

4
1
0.974764557368
0.974764557368
1

4
1
0.905234528272
0.905234528272
1

4
1
0.91714460634
0.91714460634
1

4
1
0.954579985267
0.954579985267
1

4
1
0.908204809676
0.908204809676
1

4
1
0.957744298214
0.957744298214
1

4
1
0.999552263435
0.999552263435
1

4
1
0.953726012634
0.953726012634
1

4
1
0.906643836803
0.906643836803
1

4
1
0.942900924673
0.942900924673
1

4
1
0.957768434948
0.957768434948
1

4
1
0.967654568009
0.967654568009
1

4
1
0.987300554578
0.987300554578
1

4
1
0.934578302578
0.934578302578
1

4
1
0.99828427712
0.99828427712
1

4
1
0.97667185148
0.97667185148
1

4
1
0.921693306332
0.921693306332
1

4
1
0.948078055923
0.948078055923
1

4
1
0.949473656574
0.949473656574
1

4
1
0.957530254305
0.957530254305
1

4
1
0.996041958275
0.996041958275
1

4
1
0.933553673312
0.933553673312
1

4
1
0.950992435717
0.950992435717
1

4
1
0.965743442491
0.965743442491
1

4
1
0.933396375863
0.933396375863
1

4
1
0.907143402075
0.907143402075
1

4
1
0.936036933823
0.936036933823
1

4
1
0.97070921565
0.97070921565
1

4
1
0.981528896144
0.981528896144
1

4
1
0.999459469888
0.999459469888
1

4
1
0.942601599873
0.942601599873
1

4
1
0.915164581662
0.915164581662
1

4
1
0.970270389907
0.970270389907
1

4
1
0.955444457845
0.955444457845
1

4
1
0.909393403133
0.909393403133
1

4
1
0.972291953942
0.972291953942
1

4
1
0.985275557587
0.985275557587
1

4
1
0.973000131231
0.973000131231
1

